(set-option :print-success false)
(set-logic QF_UF)
(declare-sort x46 0)
(declare-sort x73 0)
(declare-fun x121 () x73)
(declare-fun x40 () x73)
(declare-fun x27 () x73)
(declare-fun x9 (x73 x73) x73)
(declare-fun x131 () x73)
(declare-fun x11 () x73)
(assert (not (and (= x131 (x9 x11 x27)) (and (= (x9 x11 x131) x40) (and (= (x9 x27 x27) x11) (= (x9 x131 x27) x121))))))
(assert (let ((x80 (x9 x27 x131)) (x7 (x9 x11 x11)) (x6 (x9 x40 x131)) (x52 (x9 x11 x27)) (x39 (x9 x121 x27)) (x117 (x9 x40 x27)) (x129 (x9 x131 x11)) (x2 (x9 x40 x40)) (x16 (x9 x40 x11)) (x78 (x9 x121 x121)) (x36 (x9 x121 x131)) (x86 (x9 x131 x27)) (x132 (x9 x27 x27)) (x150 (x9 x11 x121)) (x140 (x9 x40 x121)) (x31 (x9 x11 x40)) (x60 (x9 x131 x131)) (x62 (x9 x131 x121)) (x139 (x9 x131 x40)) (x97 (x9 x121 x40)) (x130 (x9 x27 x11)) (x58 (x9 x27 x40)) (x136 (x9 x121 x11)) (x23 (x9 x11 x131)) (x68 (x9 x27 x121))) (and (and (and (and (and (and (not (= x31 x2)) (and (and (not (= x31 x58)) (and (and (and (not (= x139 x31)) (not (= x139 x58))) (not (= x97 x139))) (not (= x2 x139)))) (not (= x31 x97)))) (not (= x58 x97))) (not (= x58 x2))) (not (= x2 x97))) (and (and (not (= x140 x78)) (and (and (not (= x68 x78)) (and (not (= x140 x150)) (and (and (not (= x68 x150)) (and (and (and (not (= x68 x62)) (not (= x150 x62))) (not (= x78 x62))) (not (= x140 x62)))) (not (= x78 x150))))) (not (= x140 x68)))) (and (and (and (and (not (= x16 x130)) (and (and (and (not (= x7 x136)) (and (and (and (and (not (= x129 x130)) (not (= x7 x129))) (not (= x136 x129))) (not (= x129 x16))) (not (= x7 x130)))) (not (= x7 x16))) (not (= x136 x130)))) (not (= x136 x16))) (and (and (and (and (not (= x6 x23)) (and (not (= x36 x23)) (and (and (not (= x60 x6)) (and (and (not (= x23 x60)) (not (= x60 x80))) (not (= x60 x36)))) (not (= x80 x23))))) (not (= x36 x80))) (not (= x6 x80))) (not (= x6 x36)))) (and (and (and (not (= x132 x39)) (and (not (= x52 x117)) (and (not (= x39 x52)) (and (not (= x52 x132)) (and (and (and (not (= x86 x52)) (not (= x132 x86))) (not (= x39 x86))) (not (= x86 x117))))))) (not (= x117 x132))) (not (= x39 x117)))))) (and (and (and (not (= x78 x97)) (and (and (not (= x78 x39)) (and (and (not (= x78 x136)) (and (not (= x136 x39)) (and (not (= x36 x97)) (and (not (= x78 x36)) (and (not (= x39 x36)) (not (= x136 x36))))))) (not (= x97 x136)))) (not (= x97 x39)))) (and (and (and (and (and (not (= x62 x86)) (and (not (= x129 x139)) (and (and (and (and (not (= x62 x60)) (and (not (= x60 x86)) (not (= x129 x60)))) (not (= x60 x139))) (not (= x129 x86))) (not (= x129 x62))))) (not (= x139 x86))) (not (= x139 x62))) (and (and (and (not (= x150 x52)) (and (not (= x7 x31)) (and (not (= x7 x150)) (and (and (not (= x23 x31)) (and (not (= x23 x150)) (and (not (= x7 x23)) (not (= x52 x23))))) (not (= x7 x52)))))) (not (= x52 x31))) (not (= x31 x150)))) (and (and (and (not (= x68 x132)) (and (and (and (not (= x130 x132)) (and (and (and (not (= x80 x132)) (not (= x80 x130))) (not (= x80 x68))) (not (= x80 x58)))) (not (= x68 x130))) (not (= x58 x130)))) (not (= x58 x132))) (not (= x68 x58))))) (and (and (and (and (and (and (not (= x117 x16)) (and (and (not (= x6 x140)) (and (not (= x6 x117)) (not (= x16 x6)))) (not (= x2 x6)))) (not (= x16 x140))) (not (= x16 x2))) (not (= x140 x117))) (not (= x117 x2))) (not (= x2 x140)))))))
(assert (not (and (and (and (= x121 (x9 x27 x27)) (= (x9 x40 x27) x11)) (= (x9 x121 x40) x131)) (= (x9 x121 x27) x40))))
(assert (not (and (and (= (x9 x11 x121) x27) (and (= x131 (x9 x121 x40)) (= (x9 x40 x40) x11))) (= x121 (x9 x11 x40)))))
(assert (not (and (= x121 (x9 x27 x131)) (and (= x40 (x9 x27 x121)) (and (= (x9 x131 x131) x27) (= x11 (x9 x121 x131)))))))
(assert (not (and (= (x9 x40 x131) x11) (and (and (= (x9 x131 x131) x40) (= (x9 x11 x131) x27)) (= (x9 x40 x11) x121)))))
(assert (not (and (= x27 (x9 x11 x131)) (and (and (= x40 (x9 x27 x131)) (= (x9 x131 x131) x11)) (= x121 (x9 x11 x27))))))
(assert (and (and (not (= x40 x27)) (and (not (= x121 x27)) (and (not (= x11 x40)) (and (not (= x121 x11)) (and (and (and (and (not (= x131 x11)) (not (= x131 x27))) (not (= x131 x121))) (not (= x131 x40))) (not (= x11 x27))))))) (not (= x40 x121))))
(assert (not (and (and (and (= (x9 x131 x131) x27) (= x121 (x9 x40 x131))) (= x11 (x9 x27 x40))) (= (x9 x27 x131) x40))))
(assert (not (and (and (and (= (x9 x131 x40) x11) (= (x9 x40 x40) x27)) (= (x9 x27 x131) x121)) (= (x9 x27 x40) x131))))
(assert (not (and (= x131 (x9 x27 x121)) (and (and (= x40 (x9 x131 x121)) (= (x9 x121 x121) x27)) (= x11 (x9 x27 x131))))))
(assert (not (and (= x131 (x9 x27 x121)) (and (and (= x11 (x9 x131 x121)) (= (x9 x121 x121) x27)) (= (x9 x27 x131) x40)))))
(assert (not (and (= x40 (x9 x11 x121)) (and (and (= x27 (x9 x40 x121)) (= (x9 x121 x121) x11)) (= x131 (x9 x11 x40))))))
(assert (not (and (and (= x121 (x9 x11 x27)) (and (= x131 (x9 x27 x40)) (= (x9 x40 x40) x11))) (= (x9 x11 x40) x27))))
(assert (not (and (= (x9 x121 x40) x27) (and (= (x9 x121 x27) x11) (and (= x131 (x9 x27 x40)) (= (x9 x40 x40) x121))))))
(assert (not (and (and (and (= (x9 x121 x121) x11) (= x27 (x9 x131 x121))) (= (x9 x11 x131) x40)) (= (x9 x11 x121) x131))))
(assert (not (and (and (= x131 (x9 x121 x11)) (and (= x121 (x9 x27 x27)) (= (x9 x11 x27) x40))) (= x11 (x9 x121 x27)))))
(assert (not (and (= (x9 x131 x40) x27) (and (and (= (x9 x40 x40) x131) (= (x9 x27 x40) x121)) (= (x9 x131 x27) x11)))))
(assert (not (and (= x11 (x9 x27 x121)) (and (= x131 (x9 x27 x11)) (and (= (x9 x11 x121) x40) (= (x9 x121 x121) x27))))))
(assert (not (and (and (and (= x11 (x9 x121 x40)) (= (x9 x40 x40) x131)) (= x27 (x9 x131 x121))) (= (x9 x131 x40) x121))))
(assert (not (and (and (and (= (x9 x131 x131) x40) (= (x9 x27 x131) x11)) (= (x9 x40 x27) x121)) (= (x9 x40 x131) x27))))
(assert (not (and (= x131 (x9 x121 x40)) (and (= (x9 x121 x131) x11) (and (= x27 (x9 x131 x40)) (= (x9 x40 x40) x121))))))
(assert (not (and (and (and (= (x9 x27 x27) x121) (= (x9 x131 x27) x11)) (= (x9 x121 x131) x40)) (= (x9 x121 x27) x131))))
(assert (not (and (= (x9 x131 x27) x11) (and (and (= (x9 x27 x27) x131) (= (x9 x11 x27) x40)) (= (x9 x131 x11) x121)))))
(assert (not (and (= (x9 x11 x121) x27) (and (and (= (x9 x27 x121) x40) (= x11 (x9 x121 x121))) (= x131 (x9 x11 x27))))))
(assert (not (and (and (= (x9 x131 x27) x40) (and (= x131 (x9 x11 x11)) (= (x9 x27 x11) x121))) (= (x9 x131 x11) x27))))
(assert (not (and (= x131 (x9 x121 x27)) (and (and (= x40 (x9 x131 x27)) (= x121 (x9 x27 x27))) (= x11 (x9 x121 x131))))))
(assert (not (and (and (and (= x27 (x9 x40 x40)) (= (x9 x131 x40) x121)) (= x11 (x9 x27 x131))) (= (x9 x27 x40) x131))))
(assert (not (and (= x27 (x9 x131 x11)) (and (= (x9 x131 x27) x121) (and (= (x9 x11 x11) x131) (= (x9 x27 x11) x40))))))
(assert (not (and (= x27 (x9 x40 x11)) (and (= x121 (x9 x40 x27)) (and (= x40 (x9 x11 x11)) (= (x9 x27 x11) x131))))))
(assert (not (and (and (and (= (x9 x11 x11) x27) (= x121 (x9 x40 x11))) (= x131 (x9 x27 x40))) (= x40 (x9 x27 x11)))))
(assert (not (and (= x27 (x9 x11 x121)) (and (and (= x11 (x9 x121 x121)) (= (x9 x27 x121) x131)) (= x40 (x9 x11 x27))))))
(assert (not (and (and (and (= (x9 x11 x27) x121) (= (x9 x27 x27) x40)) (= (x9 x40 x11) x131)) (= x11 (x9 x40 x27)))))
(assert (not (and (and (and (= x131 (x9 x121 x121)) (= (x9 x40 x121) x27)) (= x11 (x9 x131 x40))) (= x40 (x9 x131 x121)))))
(assert (not (and (= (x9 x11 x40) x131) (and (and (= (x9 x131 x40) x121) (= (x9 x40 x40) x11)) (= x27 (x9 x11 x131))))))
(assert (not (and (= x11 (x9 x121 x131)) (and (and (= (x9 x11 x131) x40) (= (x9 x131 x131) x121)) (= (x9 x121 x11) x27)))))
(assert (not (and (and (and (= (x9 x40 x131) x27) (= x11 (x9 x131 x131))) (= x121 (x9 x11 x40))) (= x40 (x9 x11 x131)))))
(assert (let ((x62 (not (= x121 (x9 x121 x121)))) (x136 (not (= (x9 x27 x27) x27))) (x132 (x9 x11 x121)) (x60 (not (= x131 (x9 x131 x131)))) (x31 (x9 x27 x40)) (x68 (x9 x131 x40)) (x140 (x9 x11 x40)) (x36 (not (= (x9 x11 x11) x11))) (x129 (x9 x131 x27)) (x78 (x9 x40 x11)) (x6 (x9 x27 x131)) (x39 (x9 x121 x27)) (x97 (x9 x121 x40)) (x58 (x9 x40 x121)) (x7 (x9 x27 x11)) (x23 (x9 x11 x131)) (x86 (x9 x131 x121)) (x2 (not (= (x9 x40 x40) x40))) (x117 (x9 x27 x121)) (x80 (x9 x131 x11)) (x150 (x9 x40 x131)) (x16 (x9 x121 x131)) (x139 (x9 x40 x27)) (x130 (x9 x11 x27)) (x52 (x9 x121 x11))) (and (and (and (and (or (not (= x40 x31)) (not (= x40 x139))) (and (or (not (= x40 x68)) (not (= x150 x40))) (or (not (= x140 x40)) (not (= x40 x78))))) (or (not (= x40 x58)) (not (= x40 x97)))) (or x2 x2)) (and (and (and (and (and (or x136 x136) (and (or (not (= x129 x27)) (not (= x6 x27))) (or (not (= x7 x27)) (not (= x130 x27))))) (or (not (= x27 x117)) (not (= x27 x39)))) (or (not (= x27 x31)) (not (= x139 x27)))) (and (and (or (not (= x11 x78)) (not (= x11 x140))) (and (and (and (or x36 x36) (or (not (= x11 x23)) (not (= x11 x80)))) (or (not (= x130 x11)) (not (= x11 x7)))) (or (not (= x132 x11)) (not (= x11 x52))))) (and (or (not (= x131 x150)) (not (= x131 x68))) (and (or (not (= x131 x16)) (not (= x131 x86))) (and (or (not (= x129 x131)) (not (= x131 x6))) (and (or (not (= x80 x131)) (not (= x23 x131))) (or x60 x60))))))) (and (and (or x62 x62) (and (or (not (= x39 x121)) (not (= x121 x117))) (and (or (not (= x121 x16)) (not (= x121 x86))) (or (not (= x52 x121)) (not (= x132 x121)))))) (or (not (= x121 x58)) (not (= x97 x121))))))))
(assert (not (and (and (= x131 (x9 x121 x27)) (and (= x121 (x9 x40 x40)) (= x11 (x9 x27 x40)))) (= (x9 x121 x40) x27))))
(assert (not (and (and (and (= x121 (x9 x11 x11)) (= (x9 x27 x11) x131)) (= (x9 x121 x27) x40)) (= x27 (x9 x121 x11)))))
(assert (not (and (= x27 (x9 x11 x40)) (and (= (x9 x11 x27) x131) (and (= x11 (x9 x40 x40)) (= (x9 x27 x40) x121))))))
(assert (not (and (= x11 (x9 x121 x40)) (and (= x27 (x9 x121 x11)) (and (= x131 (x9 x11 x40)) (= x121 (x9 x40 x40)))))))
(assert (not (and (and (= x131 (x9 x40 x27)) (and (= x40 (x9 x121 x121)) (= x11 (x9 x27 x121)))) (= (x9 x40 x121) x27))))
(assert (not (and (and (= (x9 x40 x121) x27) (and (= (x9 x11 x11) x40) (= (x9 x121 x11) x131))) (= x121 (x9 x40 x11)))))
(assert (not (and (= (x9 x40 x131) x11) (and (= (x9 x40 x11) x27) (and (= x40 (x9 x131 x131)) (= (x9 x11 x131) x121))))))
(assert (not (and (and (= x11 (x9 x40 x27)) (and (= x131 (x9 x27 x121)) (= (x9 x121 x121) x40))) (= x27 (x9 x40 x121)))))
(assert (not (and (and (and (= (x9 x121 x40) x27) (= (x9 x40 x40) x131)) (= x11 (x9 x131 x121))) (= (x9 x131 x40) x121))))
(assert (not (and (and (and (= (x9 x11 x40) x121) (= x27 (x9 x40 x40))) (= (x9 x27 x11) x131)) (= (x9 x27 x40) x11))))
(assert (not (and (and (= x27 (x9 x40 x131)) (and (= (x9 x131 x11) x121) (= x40 (x9 x11 x11)))) (= (x9 x40 x11) x131))))
(assert (not (and (and (= x27 (x9 x121 x40)) (and (= x131 (x9 x40 x11)) (= x121 (x9 x11 x11)))) (= x40 (x9 x121 x11)))))
(assert (not (and (= (x9 x121 x27) x40) (and (= x11 (x9 x121 x40)) (and (= x121 (x9 x27 x27)) (= x131 (x9 x40 x27)))))))
(assert (not (and (= x40 (x9 x131 x11)) (and (and (= x131 (x9 x11 x11)) (= (x9 x40 x11) x121)) (= (x9 x131 x40) x27)))))
(assert (not (and (and (= x121 (x9 x40 x131)) (and (= (x9 x131 x27) x11) (= x40 (x9 x27 x27)))) (= x131 (x9 x40 x27)))))
(assert (not (and (and (= x40 (x9 x11 x27)) (and (= x11 (x9 x131 x131)) (= x121 (x9 x27 x131)))) (= (x9 x11 x131) x27))))
(assert (not (and (and (and (= x40 (x9 x11 x11)) (= x27 (x9 x131 x11))) (= (x9 x40 x131) x121)) (= (x9 x40 x11) x131))))
(assert (not (and (= x131 (x9 x40 x121)) (and (and (= x40 (x9 x121 x121)) (= x27 (x9 x131 x121))) (= x11 (x9 x40 x131))))))
(assert (let ((x36 (x9 x121 x121)) (x6 (x9 x40 x40)) (x80 (x9 x27 x27)) (x23 (x9 x11 x11)) (x60 (x9 x131 x131))) (or (and (not (= x40 x6)) (and (not (= x36 x40)) (and (and (not (= x60 x40)) (not (= x40 x23))) (not (= x40 x80))))) (or (or (and (not (= x27 x6)) (and (and (and (not (= x27 x60)) (not (= x23 x27))) (not (= x27 x80))) (not (= x27 x36)))) (or (and (not (= x6 x11)) (and (and (not (= x80 x11)) (and (not (= x23 x11)) (not (= x11 x60)))) (not (= x36 x11)))) (and (and (and (not (= x131 x80)) (and (not (= x131 x60)) (not (= x23 x131)))) (not (= x36 x131))) (not (= x131 x6))))) (and (not (= x121 x6)) (and (not (= x36 x121)) (and (not (= x121 x80)) (and (not (= x60 x121)) (not (= x121 x23))))))))))
(assert (not (and (= x121 (x9 x40 x27)) (and (= x131 (x9 x40 x121)) (and (= x40 (x9 x27 x27)) (= (x9 x121 x27) x11))))))
(assert (not (and (and (= x121 (x9 x40 x11)) (and (= (x9 x11 x27) x131) (= x40 (x9 x27 x27)))) (= (x9 x40 x27) x11))))
(assert (not (and (= (x9 x131 x11) x121) (and (= (x9 x131 x121) x27) (and (= x131 (x9 x11 x11)) (= (x9 x121 x11) x40))))))
(assert (not (and (and (= (x9 x40 x121) x131) (and (= (x9 x121 x11) x27) (= x40 (x9 x11 x11)))) (= (x9 x40 x11) x121))))
(assert (not (and (= (x9 x131 x27) x11) (and (= (x9 x131 x11) x40) (and (= x121 (x9 x11 x27)) (= x131 (x9 x27 x27)))))))
(assert (not (and (and (and (= (x9 x131 x11) x40) (= (x9 x11 x11) x121)) (= (x9 x121 x131) x27)) (= x131 (x9 x121 x11)))))
(assert (not (and (= x40 (x9 x121 x131)) (and (and (= (x9 x131 x131) x121) (= x27 (x9 x40 x131))) (= x11 (x9 x121 x40))))))
(assert (not (and (and (= x131 (x9 x121 x11)) (and (= (x9 x40 x40) x121) (= (x9 x11 x40) x27))) (= x11 (x9 x121 x40)))))
(assert (not (and (= (x9 x40 x131) x121) (and (= x11 (x9 x40 x121)) (and (= x27 (x9 x121 x131)) (= x40 (x9 x131 x131)))))))
(assert (not (and (and (and (= (x9 x11 x27) x131) (= (x9 x27 x27) x121)) (= x40 (x9 x121 x11))) (= x11 (x9 x121 x27)))))
(assert (not (and (and (and (= (x9 x121 x121) x27) (= (x9 x11 x121) x131)) (= (x9 x27 x11) x40)) (= x11 (x9 x27 x121)))))
(assert (not (and (= (x9 x121 x131) x11) (and (and (= (x9 x131 x131) x121) (= (x9 x11 x131) x27)) (= (x9 x121 x11) x40)))))
(assert (not (and (= (x9 x121 x11) x131) (and (= x40 (x9 x121 x131)) (and (= x27 (x9 x131 x11)) (= x121 (x9 x11 x11)))))))
(assert (not (and (and (and (= (x9 x27 x27) x40) (= (x9 x121 x27) x131)) (= (x9 x40 x121) x11)) (= x121 (x9 x40 x27)))))
(assert (not (and (and (and (= x40 (x9 x121 x27)) (= x131 (x9 x27 x27))) (= (x9 x131 x121) x11)) (= x121 (x9 x131 x27)))))
(assert (not (and (and (and (= x11 (x9 x40 x40)) (= x27 (x9 x131 x40))) (= (x9 x11 x131) x121)) (= (x9 x11 x40) x131))))
(assert (not (and (= x27 (x9 x121 x11)) (and (and (= (x9 x27 x11) x40) (= x121 (x9 x11 x11))) (= (x9 x121 x27) x131)))))
(assert (not (and (and (and (= x11 (x9 x27 x27)) (= x121 (x9 x40 x27))) (= x131 (x9 x11 x40))) (= x40 (x9 x11 x27)))))
(assert (not (and (= (x9 x27 x131) x11) (and (and (= (x9 x131 x131) x27) (= x40 (x9 x11 x131))) (= (x9 x27 x11) x121)))))
(assert (not (and (= (x9 x27 x131) x11) (and (= (x9 x27 x11) x40) (and (= x27 (x9 x131 x131)) (= (x9 x11 x131) x121))))))
(assert (not (and (and (= x11 (x9 x131 x27)) (and (= x40 (x9 x27 x121)) (= x131 (x9 x121 x121)))) (= (x9 x131 x121) x27))))
(assert (not (and (and (= x40 (x9 x27 x121)) (and (= (x9 x121 x11) x131) (= (x9 x11 x11) x27))) (= (x9 x27 x11) x121))))
(assert (not (and (= x40 (x9 x131 x27)) (and (= (x9 x131 x40) x121) (and (= x131 (x9 x27 x27)) (= (x9 x40 x27) x11))))))
(assert (not (and (and (= (x9 x27 x40) x131) (and (= (x9 x40 x121) x11) (= x27 (x9 x121 x121)))) (= x40 (x9 x27 x121)))))
(assert (not (and (= (x9 x11 x27) x121) (and (= (x9 x11 x121) x131) (and (= x40 (x9 x121 x27)) (= (x9 x27 x27) x11))))))
(assert (not (and (and (and (= x121 (x9 x131 x131)) (= (x9 x40 x131) x11)) (= x27 (x9 x121 x40))) (= x40 (x9 x121 x131)))))
(assert (not (and (= x121 (x9 x11 x131)) (and (and (= (x9 x121 x131) x27) (= x11 (x9 x131 x131))) (= x40 (x9 x11 x121))))))
(assert (not (and (and (= x40 (x9 x121 x27)) (and (= (x9 x131 x131) x121) (= (x9 x27 x131) x11))) (= (x9 x121 x131) x27))))
(assert (not (and (and (and (= x27 (x9 x121 x11)) (= (x9 x11 x11) x131)) (= (x9 x131 x121) x40)) (= x121 (x9 x131 x11)))))
(assert (not (and (= x121 (x9 x27 x40)) (and (and (= (x9 x40 x40) x27) (= x131 (x9 x121 x40))) (= (x9 x27 x121) x11)))))
(assert (not (and (and (= x27 (x9 x11 x40)) (and (= (x9 x40 x121) x131) (= (x9 x121 x121) x11))) (= (x9 x11 x121) x40))))
(assert (not (and (and (and (= x27 (x9 x131 x131)) (= (x9 x40 x131) x11)) (= (x9 x27 x40) x121)) (= x40 (x9 x27 x131)))))
(assert (not (and (= x40 (x9 x131 x27)) (and (and (= (x9 x27 x27) x131) (= (x9 x40 x27) x121)) (= x11 (x9 x131 x40))))))
(assert (not (and (= (x9 x27 x40) x121) (and (and (= x11 (x9 x121 x40)) (= (x9 x40 x40) x27)) (= (x9 x27 x121) x131)))))
(assert (not (and (= x131 (x9 x27 x11)) (and (and (= (x9 x11 x11) x27) (= (x9 x131 x11) x121)) (= (x9 x27 x131) x40)))))
(assert (not (and (and (= (x9 x131 x27) x40) (and (= x11 (x9 x27 x121)) (= (x9 x121 x121) x131))) (= (x9 x131 x121) x27))))
(assert (and (or (= x40 (x9 x40 (x9 x40 x40))) (or (or (= (x9 x40 (x9 x40 x27)) x27) (or (= x11 (x9 x40 (x9 x40 x11))) (= x131 (x9 x40 (x9 x40 x131))))) (= (x9 x40 (x9 x40 x121)) x121))) (and (and (or (= x40 (x9 x27 (x9 x27 x40))) (or (or (= x27 (x9 x27 (x9 x27 x27))) (or (= x131 (x9 x27 (x9 x27 x131))) (= x11 (x9 x27 (x9 x27 x11))))) (= (x9 x27 (x9 x27 x121)) x121))) (and (or (= x40 (x9 x11 (x9 x11 x40))) (or (or (= (x9 x11 (x9 x11 x27)) x27) (or (= x11 (x9 x11 (x9 x11 x11))) (= (x9 x11 (x9 x11 x131)) x131))) (= (x9 x11 (x9 x11 x121)) x121))) (or (= (x9 x131 (x9 x131 x40)) x40) (or (or (or (= x131 (x9 x131 (x9 x131 x131))) (= x11 (x9 x131 (x9 x131 x11)))) (= x27 (x9 x131 (x9 x131 x27)))) (= (x9 x131 (x9 x131 x121)) x121))))) (or (= x40 (x9 x121 (x9 x121 x40))) (or (or (= (x9 x121 (x9 x121 x27)) x27) (or (= x131 (x9 x121 (x9 x121 x131))) (= x11 (x9 x121 (x9 x121 x11))))) (= x121 (x9 x121 (x9 x121 x121))))))))
(assert (not (and (and (and (= x11 (x9 x27 x27)) (= x131 (x9 x40 x27))) (= (x9 x11 x40) x121)) (= (x9 x11 x27) x40))))
(assert (not (and (and (and (= x40 (x9 x121 x131)) (= (x9 x131 x131) x11)) (= (x9 x11 x121) x27)) (= (x9 x11 x131) x121))))
(assert (and (and (and (not (= x27 (x9 x27 x27))) (and (not (= (x9 x131 x131) x131)) (not (= x11 (x9 x11 x11))))) (not (= (x9 x121 x121) x121))) (not (= x40 (x9 x40 x40)))))
(assert (not (and (= (x9 x40 x121) x131) (and (and (= (x9 x121 x121) x40) (= x11 (x9 x131 x121))) (= (x9 x40 x131) x27)))))
(assert (not (and (= x27 (x9 x131 x40)) (and (= x121 (x9 x131 x27)) (and (= (x9 x40 x40) x131) (= (x9 x27 x40) x11))))))
(assert (not (and (and (and (= (x9 x11 x11) x27) (= (x9 x40 x11) x131)) (= (x9 x27 x40) x121)) (= (x9 x27 x11) x40))))
(assert (not (and (= x131 (x9 x27 x11)) (and (and (= x40 (x9 x131 x11)) (= x27 (x9 x11 x11))) (= x121 (x9 x27 x131))))))
(assert (not (and (and (and (= (x9 x40 x11) x27) (= (x9 x11 x11) x131)) (= (x9 x131 x40) x121)) (= (x9 x131 x11) x40))))
(assert (not (and (and (= x27 (x9 x131 x40)) (and (= (x9 x121 x121) x131) (= (x9 x40 x121) x11))) (= x40 (x9 x131 x121)))))
(assert (not (and (and (and (= x11 (x9 x40 x40)) (= x27 (x9 x121 x40))) (= (x9 x11 x121) x131)) (= (x9 x11 x40) x121))))
(assert (not (and (= x131 (x9 x11 x27)) (and (and (= x40 (x9 x131 x27)) (= x11 (x9 x27 x27))) (= (x9 x11 x131) x121)))))
(assert (not (and (and (and (= (x9 x121 x131) x40) (= x27 (x9 x131 x131))) (= (x9 x27 x121) x11)) (= x121 (x9 x27 x131)))))
(assert (not (and (and (= (x9 x40 x27) x11) (and (= x121 (x9 x27 x131)) (= x40 (x9 x131 x131)))) (= x27 (x9 x40 x131)))))
(assert (not (and (and (and (= x40 (x9 x131 x131)) (= x11 (x9 x121 x131))) (= (x9 x40 x121) x27)) (= x121 (x9 x40 x131)))))
(assert (not (and (= (x9 x40 x121) x11) (and (= x131 (x9 x40 x11)) (and (= x40 (x9 x121 x121)) (= x27 (x9 x11 x121)))))))
(assert (not (and (= x40 (x9 x27 x121)) (and (and (= x27 (x9 x121 x121)) (= x131 (x9 x40 x121))) (= x11 (x9 x27 x40))))))
(assert (not (and (= (x9 x27 x11) x121) (and (= x131 (x9 x27 x121)) (and (= x40 (x9 x121 x11)) (= x27 (x9 x11 x11)))))))
(assert (not (and (= x131 (x9 x121 x40)) (and (= (x9 x121 x131) x27) (and (= (x9 x131 x40) x11) (= x121 (x9 x40 x40)))))))
(assert (not (and (and (= x131 (x9 x121 x40)) (and (= x121 (x9 x11 x11)) (= x27 (x9 x40 x11)))) (= (x9 x121 x11) x40))))
(assert (let ((x31 (x9 x11 x40)) (x48 (x9 x40 x11)) (x104 (x9 x40 x121)) (x54 (x9 x40 x40)) (x6 (x9 x131 x121)) (x129 (x9 x131 x40)) (x56 (x9 x27 x27)) (x136 (x9 x27 x131)) (x80 (x9 x131 x11)) (x140 (x9 x11 x27)) (x23 (x9 x131 x131)) (x139 (x9 x11 x121)) (x36 (x9 x131 x27)) (x16 (x9 x121 x131)) (x92 (x9 x121 x121)) (x72 (x9 x121 x40)) (x109 (x9 x121 x27)) (x101 (x9 x40 x27)) (x91 (x9 x27 x40)) (x130 (x9 x11 x131)) (x86 (x9 x40 x131)) (x156 (x9 x121 x11)) (x78 (x9 x11 x11)) (x154 (x9 x27 x121)) (x2 (x9 x27 x11))) (let ((x70 (= x121 x78)) (x17 (= x40 x154)) (x61 (= x121 x56)) (x59 (= x40 x80)) (x62 (= x80 x131)) (x102 (= x86 x40)) (x90 (= x31 x27)) (x19 (= x131 x140)) (x74 (= x136 x27)) (x93 (= x156 x131)) (x157 (= x31 x121)) (x142 (= x11 x54)) (x123 (= x131 x72)) (x77 (= x91 x27)) (x71 (= x16 x11)) (x38 (= x121 x140)) (x153 (= x121 x154)) (x94 (= x121 x101)) (x113 (= x40 x92)) (x124 (= x27 x72)) (x50 (= x11 x92)) (x89 (= x11 x56)) (x45 (= x40 x139)) (x13 (= x121 x91)) (x53 (= x140 x11)) (x114 (= x154 x11)) (x82 (= x11 x104)) (x111 (= x11 x31)) (x10 (= x139 x27)) (x97 (= x78 x11)) (x79 (= x6 x131)) (x66 (= x91 x131)) (x115 (= x27 x78)) (x42 (= x139 x121)) (x151 (= x156 x121)) (x49 (= x129 x121)) (x87 (= x2 x40)) (x88 (= x131 x109)) (x4 (= x36 x131)) (x34 (= x11 x101)) (x47 (= x154 x131)) (x138 (= x72 x11)) (x60 (= x131 x23)) (x155 (= x48 x11)) (x98 (= x72 x40)) (x63 (= x129 x11)) (x28 (= x131 x54)) (x84 (= x131 x136)) (x15 (= x121 x2)) (x33 (= x48 x40)) (x67 (= x140 x40)) (x81 (= x11 x91)) (x127 (= x27 x36)) (x133 (= x56 x40)) (x158 (= x27 x109)) (x126 (= x92 x27)) (x75 (= x121 x92)) (x117 (= x130 x131)) (x118 (= x121 x6)) (x64 (= x154 x27)) (x150 (= x78 x131)) (x106 (= x101 x131)) (x110 (= x140 x27)) (x147 (= x86 x11)) (x128 (= x2 x131)) (x145 (= x80 x27)) (x108 (= x131 x92)) (x148 (= x156 x27)) (x52 (= x23 x27)) (x76 (= x31 x40)) (x51 (= x36 x40)) (x21 (= x121 x54)) (x132 (= x121 x23)) (x69 (= x6 x27)) (x141 (= x131 x86)) (x103 (= x16 x121)) (x55 (= x27 x48)) (x99 (= x104 x131)) (x58 (= x11 x80)) (x1 (= x131 x139)) (x24 (= x156 x11)) (x57 (= x121 x109)) (x122 (= x27 x130)) (x41 (= x27 x16)) (x32 (= x48 x121)) (x152 (= x109 x40)) (x39 (= x40 x23)) (x8 (= x131 x48)) (x95 (= x40 x16)) (x30 (= x104 x27)) (x35 (= x40 x91)) (x3 (= x121 x86)) (x25 (= x11 x2)) (x14 (= x27 x129)) (x146 (= x136 x11)) (x134 (= x56 x131)) (x26 (= x129 x40)) (x12 (= x36 x11)) (x18 (= x136 x121)) (x7 (= x11 x23)) (x5 (= x31 x131)) (x20 (= x36 x121)) (x135 (= x40 x130)) (x107 (= x131 x129)) (x37 (= x56 x27)) (x144 (= x40 x156)) (x143 (= x11 x109)) (x96 (= x6 x11)) (x85 (= x104 x121)) (x43 (= x40 x54)) (x120 (= x40 x104)) (x125 (= x54 x27)) (x29 (= x121 x130)) (x83 (= x27 x86)) (x44 (= x27 x101)) (x137 (= x121 x72)) (x68 (= x11 x130)) (x65 (= x2 x27)) (x105 (= x78 x40)) (x22 (= x40 x101)) (x116 (= x136 x40)) (x100 (= x131 x16)) (x119 (= x6 x40)) (x149 (= x139 x11)) (x112 (= x80 x121))) (and (and (and (and (and (and (and (or (or (or x18 (or x29 x132)) x103) x3) (or (or (or x20 (or x112 x132)) x118) x49)) (and (and (or (or x69 (or (or x145 x52) x127)) x14) (or (or x41 (or (or x52 x122) x74)) x83)) (and (and (or x63 (or x96 (or (or x7 x58) x12))) (or (or (or (or x7 x68) x146) x71) x147)) (and (or (or x100 (or x84 (or x117 x60))) x141) (or (or x79 (or (or x62 x60) x4)) x107))))) (and (or (or (or x51 (or x39 x59)) x119) x26) (or (or x95 (or (or x135 x39) x116)) x102))) (and (and (or (or x45 (or x67 (or x105 x135))) x76) (or (or (or (or x59 x105) x87) x144) x33)) (and (and (and (or (or x148 (or (or x115 x145) x65)) x55) (or (or (or (or x115 x122) x110) x10) x90)) (and (and (or (or (or x128 (or x62 x150)) x93) x8) (or (or (or x19 (or x117 x150)) x1) x5)) (and (or x111 (or x149 (or x53 (or x97 x68)))) (or x155 (or (or x25 (or x97 x58)) x24))))) (and (or x157 (or x42 (or (or x29 x70) x38))) (or x32 (or (or (or x70 x112) x15) x151)))))) (and (and (or (or (or x133 (or x67 x51)) x152) x22) (or (or x17 (or (or x87 x116) x133)) x35)) (and (and (and (and (or (or x143 (or (or x12 x53) x89)) x34) (or (or (or x89 (or x146 x25)) x114) x81)) (and (or x106 (or (or (or x4 x19) x134) x88)) (or (or (or (or x128 x84) x134) x47) x66))) (and (or x77 (or (or (or x65 x74) x37) x64)) (or (or x158 (or (or x127 x110) x37)) x44))) (and (or (or (or (or x20 x38) x61) x57) x94) (or (or (or x61 (or x18 x15)) x153) x13))))) (and (and (or (or (or x152 (or x144 x95)) x113) x98) (or x120 (or x113 (or (or x119 x45) x17)))) (and (and (and (or x124 (or x126 (or x158 (or x148 x41)))) (or (or (or x64 (or x69 x10)) x126) x30)) (and (and (or x138 (or x50 (or (or x71 x24) x143))) (or (or x50 (or x114 (or x149 x96))) x82)) (and (or x123 (or x108 (or x88 (or x100 x93)))) (or x99 (or (or x47 (or x79 x1)) x108))))) (and (or (or (or x57 (or x151 x103)) x75) x137) (or x85 (or x75 (or x153 (or x118 x42)))))))) (and (and (or x43 (or (or (or x76 x26) x35) x98)) (or x43 (or x120 (or (or x102 x33) x22)))) (and (and (or (or (or (or x3 x32) x94) x85) x21) (or x21 (or x137 (or (or x49 x157) x13)))) (and (and (or x125 (or (or (or x90 x14) x77) x124)) (or (or (or (or x55 x83) x44) x30) x125)) (and (and (or x28 (or (or (or x107 x5) x66) x123)) (or x28 (or (or x106 (or x8 x141)) x99))) (and (or (or (or (or x111 x63) x81) x138) x142) (or (or x82 (or x34 (or x147 x155))) x142))))))))))
(assert (not (and (= (x9 x11 x27) x121) (and (= (x9 x11 x121) x40) (and (= (x9 x27 x27) x11) (= (x9 x121 x27) x131))))))
(assert (let ((x6 (= x40 (x9 (x9 x40 x40) x40))) (x60 (= (x9 (x9 x131 x131) x131) x131)) (x36 (= x121 (x9 (x9 x121 x121) x121))) (x80 (= x27 (x9 (x9 x27 x27) x27))) (x23 (= (x9 (x9 x11 x11) x11) x11))) (and (and (and (or (= x40 (x9 (x9 x121 x40) x121)) (or (or (or (= (x9 (x9 x121 x131) x121) x131) (= (x9 (x9 x121 x11) x121) x11)) (= (x9 (x9 x121 x27) x121) x27)) x36)) (and (or (= x40 (x9 (x9 x27 x40) x27)) (or (= x121 (x9 (x9 x27 x121) x27)) (or (or (= (x9 (x9 x27 x11) x27) x11) (= x131 (x9 (x9 x27 x131) x27))) x80))) (and (or (or (or (or x23 (= x131 (x9 (x9 x11 x131) x11))) (= x27 (x9 (x9 x11 x27) x11))) (= (x9 (x9 x11 x121) x11) x121)) (= (x9 (x9 x11 x40) x11) x40)) (or (= x40 (x9 (x9 x131 x40) x131)) (or (or (= x27 (x9 (x9 x131 x27) x131)) (or (= (x9 (x9 x131 x11) x131) x11) x60)) (= x121 (x9 (x9 x131 x121) x131))))))) (or (or (or (= (x9 (x9 x40 x27) x40) x27) (or (= x11 (x9 (x9 x40 x11) x40)) (= (x9 (x9 x40 x131) x40) x131))) (= (x9 (x9 x40 x121) x40) x121)) x6)) (or (or x36 (or (or x23 x60) x80)) x6))))
(assert (not (and (= (x9 x121 x131) x27) (and (= (x9 x121 x27) x11) (and (= x40 (x9 x27 x131)) (= (x9 x131 x131) x121))))))
(assert (let ((x52 (x9 x27 x11)) (x68 (x9 x121 x27)) (x130 (x9 x11 x27)) (x150 (x9 x121 x11)) (x140 (x9 x121 x40)) (x6 (x9 x131 x40)) (x16 (x9 x11 x40)) (x132 (x9 x27 x27)) (x139 (x9 x40 x131)) (x86 (x9 x27 x131)) (x36 (x9 x131 x121)) (x39 (x9 x27 x121)) (x78 (x9 x121 x121)) (x31 (x9 x40 x11)) (x62 (x9 x121 x131)) (x97 (x9 x40 x121)) (x117 (x9 x27 x40)) (x60 (x9 x131 x131)) (x129 (x9 x11 x131)) (x136 (x9 x11 x121)) (x58 (x9 x40 x27)) (x80 (x9 x131 x27)) (x7 (x9 x11 x11)) (x23 (x9 x131 x11)) (x2 (x9 x40 x40))) (and (and (and (and (and (and (and (and (or (or (or (= x60 x27) (or (= x60 x11) (= x60 x131))) (= x121 x60)) (= x60 x40)) (or (= x23 x40) (or (= x121 x23) (or (= x23 x27) (or (= x23 x131) (= x11 x23)))))) (or (or (or (= x80 x27) (or (= x80 x11) (= x131 x80))) (= x121 x80)) (= x40 x80))) (or (or (or (= x27 x36) (or (= x36 x131) (= x36 x11))) (= x36 x121)) (= x36 x40))) (or (= x6 x40) (or (or (= x27 x6) (or (= x11 x6) (= x131 x6))) (= x6 x121)))) (and (or (= x16 x40) (or (= x121 x16) (or (or (= x16 x11) (= x16 x131)) (= x27 x16)))) (and (and (or (or (= x121 x130) (or (= x27 x130) (or (= x130 x11) (= x131 x130)))) (= x40 x130)) (and (or (= x40 x7) (or (= x121 x7) (or (= x27 x7) (or (= x7 x131) (= x7 x11))))) (or (= x129 x40) (or (= x129 x121) (or (= x129 x27) (or (= x129 x131) (= x11 x129))))))) (or (or (= x121 x136) (or (= x27 x136) (or (= x11 x136) (= x131 x136)))) (= x136 x40))))) (and (or (or (or (= x27 x117) (or (= x131 x117) (= x117 x11))) (= x117 x121)) (= x40 x117)) (and (or (= x39 x40) (or (= x121 x39) (or (= x39 x27) (or (= x11 x39) (= x131 x39))))) (and (or (or (= x121 x132) (or (or (= x132 x11) (= x131 x132)) (= x132 x27))) (= x132 x40)) (and (or (or (or (or (= x52 x11) (= x52 x131)) (= x27 x52)) (= x52 x121)) (= x40 x52)) (or (= x40 x86) (or (or (= x86 x27) (or (= x11 x86) (= x86 x131))) (= x121 x86)))))))) (and (and (and (and (or (or (= x121 x150) (or (= x27 x150) (or (= x150 x131) (= x11 x150)))) (= x150 x40)) (or (or (= x121 x62) (or (= x62 x27) (or (= x62 x131) (= x62 x11)))) (= x40 x62))) (or (= x68 x40) (or (= x68 x121) (or (or (= x68 x11) (= x131 x68)) (= x27 x68))))) (or (= x78 x40) (or (or (or (= x78 x11) (= x78 x131)) (= x27 x78)) (= x78 x121)))) (or (= x140 x40) (or (or (= x27 x140) (or (= x140 x131) (= x11 x140))) (= x121 x140))))) (and (and (and (or (or (or (= x27 x58) (or (= x11 x58) (= x131 x58))) (= x121 x58)) (= x40 x58)) (and (or (or (= x121 x139) (or (= x139 x27) (or (= x139 x131) (= x139 x11)))) (= x40 x139)) (or (or (= x121 x31) (or (or (= x31 x131) (= x11 x31)) (= x27 x31))) (= x40 x31)))) (or (= x97 x40) (or (= x121 x97) (or (= x97 x27) (or (= x11 x97) (= x131 x97)))))) (or (= x2 x40) (or (or (or (= x11 x2) (= x2 x131)) (= x2 x27)) (= x121 x2)))))))
(assert (not (and (= x11 (x9 x131 x40)) (and (= x27 (x9 x131 x11)) (and (= x121 (x9 x11 x40)) (= x131 (x9 x40 x40)))))))
(assert (not (and (and (and (= x121 (x9 x27 x11)) (= (x9 x11 x11) x40)) (= x131 (x9 x40 x27))) (= x27 (x9 x40 x11)))))
(assert (not (and (and (and (= x40 (x9 x27 x27)) (= x121 (x9 x131 x27))) (= x11 (x9 x40 x131))) (= x131 (x9 x40 x27)))))
(assert (not (and (= (x9 x11 x131) x40) (and (= (x9 x11 x40) x27) (and (= x11 (x9 x131 x131)) (= (x9 x40 x131) x121))))))
(assert (let ((x128 (x9 x11 x11)) (x25 (x9 x121 x11)) (x65 (x9 x121 x27)) (x122 (x9 x131 x11)) (x156 (x9 x131 x131)) (x67 (x9 x40 x121)) (x29 (x9 x27 x131)) (x146 (x9 x11 x121)) (x74 (x9 x27 x121)) (x59 (x9 x40 x131)) (x127 (x9 x27 x40)) (x56 (x9 x11 x40)) (x110 (x9 x40 x27)) (x109 (x9 x27 x27)) (x71 (x9 x40 x40)) (x51 (x9 x121 x40)) (x115 (x9 x131 x27)) (x19 (x9 x11 x27)) (x116 (x9 x121 x121)) (x134 (x9 x27 x11)) (x112 (x9 x131 x121)) (x145 (x9 x11 x131)) (x154 (x9 x40 x11)) (x135 (x9 x131 x40)) (x70 (x9 x121 x131))) (let ((x6 (not (= x131 x29))) (x132 (not (= x131 x146))) (x102 (not (= x59 x40))) (x89 (not (= x11 x19))) (x105 (not (= x145 x11))) (x153 (not (= x27 x110))) (x23 (not (= x145 x131))) (x58 (not (= x131 x67))) (x39 (not (= x65 x131))) (x66 (not (= x112 x121))) (x4 (not (= x128 x11))) (x152 (not (= x27 x71))) (x81 (not (= x110 x121))) (x100 (not (= x11 x135))) (x139 (not (= x110 x131))) (x61 (not (= x74 x11))) (x37 (not (= x11 x70))) (x31 (not (= x127 x131))) (x104 (not (= x19 x27))) (x48 (not (= x11 x156))) (x57 (not (= x27 x135))) (x64 (not (= x27 x65))) (x8 (not (= x115 x121))) (x113 (not (= x128 x121))) (x35 (not (= x67 x40))) (x52 (not (= x25 x131))) (x87 (not (= x11 x116))) (x149 (not (= x29 x27))) (x41 (not (= x109 x27))) (x147 (not (= x65 x121))) (x44 (not (= x156 x40))) (x130 (not (= x19 x131))) (x60 (not (= x156 x131))) (x150 (not (= x131 x59))) (x69 (not (= x25 x27))) (x42 (not (= x27 x56))) (x75 (not (= x27 x127))) (x38 (not (= x11 x65))) (x143 (not (= x156 x27))) (x90 (not (= x128 x40))) (x92 (not (= x145 x27))) (x119 (not (= x156 x121))) (x86 (not (= x131 x112))) (x158 (not (= x112 x27))) (x63 (not (= x121 x154))) (x94 (not (= x70 x40))) (x136 (not (= x109 x131))) (x111 (not (= x121 x56))) (x93 (not (= x154 x11))) (x24 (not (= x71 x11))) (x72 (not (= x27 x122))) (x83 (not (= x51 x121))) (x33 (not (= x135 x40))) (x99 (not (= x19 x121))) (x2 (not (= x131 x71))) (x144 (not (= x51 x27))) (x124 (not (= x115 x40))) (x103 (not (= x27 x116))) (x15 (not (= x25 x11))) (x50 (not (= x27 x134))) (x133 (not (= x11 x59))) (x20 (not (= x11 x146))) (x106 (not (= x121 x134))) (x30 (not (= x40 x145))) (x151 (not (= x27 x59))) (x53 (not (= x134 x11))) (x78 (not (= x131 x154))) (x85 (not (= x112 x40))) (x62 (not (= x131 x116))) (x96 (not (= x27 x128))) (x120 (not (= x40 x56))) (x107 (not (= x121 x109))) (x3 (not (= x40 x19))) (x125 (not (= x134 x40))) (x49 (not (= x25 x40))) (x43 (not (= x40 x71))) (x14 (not (= x40 x122))) (x55 (not (= x121 x71))) (x129 (not (= x115 x131))) (x142 (not (= x121 x67))) (x5 (not (= x70 x121))) (x155 (not (= x121 x74))) (x22 (not (= x154 x40))) (x95 (not (= x67 x27))) (x77 (not (= x40 x29))) (x82 (not (= x59 x121))) (x1 (not (= x11 x127))) (x28 (not (= x146 x121))) (x76 (not (= x127 x40))) (x101 (not (= x11 x109))) (x17 (not (= x121 x122))) (x88 (not (= x11 x56))) (x68 (not (= x131 x135))) (x114 (not (= x115 x27))) (x118 (not (= x27 x154))) (x12 (not (= x115 x11))) (x18 (not (= x112 x11))) (x34 (not (= x116 x121))) (x26 (not (= x40 x110))) (x117 (not (= x74 x131))) (x47 (not (= x67 x11))) (x126 (not (= x27 x74))) (x91 (not (= x29 x11))) (x148 (not (= x27 x70))) (x13 (not (= x65 x40))) (x54 (not (= x135 x121))) (x16 (not (= x131 x70))) (x97 (not (= x131 x51))) (x123 (not (= x121 x25))) (x32 (not (= x40 x109))) (x79 (not (= x11 x110))) (x157 (not (= x146 x40))) (x140 (not (= x131 x56))) (x84 (not (= x11 x122))) (x10 (not (= x146 x27))) (x80 (not (= x131 x122))) (x138 (not (= x127 x121))) (x108 (not (= x11 x51))) (x7 (not (= x131 x134))) (x36 (not (= x131 x128))) (x21 (not (= x40 x116))) (x98 (not (= x51 x40))) (x141 (not (= x121 x29))) (x137 (not (= x74 x40))) (x45 (not (= x121 x145)))) (or (and (and (and (or x35 x98) (and (or x26 x76) (and (or x102 x33) (or x120 x22)))) (or x43 x43)) (and (and (and (and (or x137 x13) (and (and (or x77 x124) (or x125 x3)) (or x32 x32))) (or x26 x76)) (and (and (or x102 x33) (and (and (and (or x44 x44) (or x14 x30)) (or x77 x124)) (or x94 x85))) (and (or x120 x22) (and (or x157 x49) (and (and (or x30 x14) (or x90 x90)) (or x3 x125)))))) (and (or x35 x98) (and (or x21 x21) (and (and (or x157 x49) (or x85 x94)) (or x13 x137)))))) (or (or (or (and (and (and (or x97 x58) (and (and (or x39 x117) (and (or x52 x132) (or x86 x16))) (or x62 x62))) (and (and (and (or x68 x150) (and (and (and (or x60 x60) (or x23 x80)) (or x6 x129)) (or x16 x86))) (and (and (and (or x7 x130) (and (or x36 x36) (or x80 x23))) (or x132 x52)) (or x78 x140))) (and (and (or x39 x117) (and (and (or x7 x130) (or x6 x129)) (or x136 x136))) (or x31 x139)))) (and (or x2 x2) (and (and (or x31 x139) (and (or x150 x68) (or x78 x140))) (or x97 x58)))) (and (and (and (and (and (and (or x37 x18) (and (and (or x48 x48) (or x105 x84)) (or x12 x91))) (or x100 x133)) (and (and (and (and (or x4 x4) (or x84 x105)) (or x53 x89)) (or x20 x15)) (or x93 x88))) (and (or x79 x1) (and (and (or x101 x101) (and (or x91 x12) (or x53 x89))) (or x38 x61)))) (and (or x108 x47) (and (and (or x38 x61) (and (or x20 x15) (or x37 x18))) (or x87 x87)))) (and (or x24 x24) (and (and (or x79 x1) (and (or x93 x88) (or x133 x100))) (or x108 x47))))) (and (and (and (or x95 x144) (and (or x75 x153) (and (or x57 x151) (or x118 x42)))) (or x152 x152)) (and (and (and (or x75 x153) (and (and (and (or x104 x50) (or x149 x114)) (or x41 x41)) (or x126 x64))) (and (and (or x151 x57) (and (and (or x114 x149) (and (or x92 x72) (or x143 x143))) (or x158 x148))) (and (or x42 x118) (and (or x10 x69) (and (and (or x96 x96) (or x92 x72)) (or x104 x50)))))) (and (or x95 x144) (and (and (and (or x158 x148) (or x10 x69)) (or x64 x126)) (or x103 x103)))))) (and (and (and (or x142 x83) (and (or x34 x34) (and (or x155 x147) (and (or x28 x123) (or x66 x5))))) (and (and (and (and (or x123 x28) (and (and (or x45 x17) (or x113 x113)) (or x99 x106))) (or x111 x63)) (and (and (or x5 x66) (and (and (or x17 x45) (or x119 x119)) (or x141 x8))) (or x82 x54))) (and (or x81 x138) (and (or x147 x155) (and (or x107 x107) (and (or x8 x141) (or x106 x99))))))) (and (and (and (or x138 x81) (and (or x111 x63) (or x54 x82))) (or x83 x142)) (or x55 x55))))))))
(assert (not (and (= x121 (x9 x131 x27)) (and (and (= (x9 x121 x27) x11) (= x131 (x9 x27 x27))) (= x40 (x9 x131 x121))))))
(assert (not (and (and (= (x9 x131 x11) x27) (and (= x131 (x9 x121 x121)) (= x40 (x9 x11 x121)))) (= (x9 x131 x121) x11))))
(assert (not (and (and (= x27 (x9 x40 x11)) (and (= x40 (x9 x121 x121)) (= x131 (x9 x11 x121)))) (= (x9 x40 x121) x11))))
(assert (not (and (and (and (= (x9 x40 x40) x27) (= x131 (x9 x11 x40))) (= x121 (x9 x27 x11))) (= (x9 x27 x40) x11))))
(assert (not (and (and (and (= x27 (x9 x11 x40)) (= (x9 x40 x40) x131)) (= x121 (x9 x131 x11))) (= x11 (x9 x131 x40)))))
(assert (not (and (= (x9 x131 x121) x11) (and (= (x9 x131 x11) x40) (and (= (x9 x11 x121) x27) (= x131 (x9 x121 x121)))))))
(assert (not (and (= x131 (x9 x11 x121)) (and (and (= x40 (x9 x131 x121)) (= x11 (x9 x121 x121))) (= (x9 x11 x131) x27)))))
(check-sat)
(exit)
